\ENCODING=ISO-8859-1
\Problem name: inst_11_cut_n12

Maximize
 obj1: 21 x0 + 55 x1 + 86 x2 + 59 x3 + 72 x4 + 71 x5
Subject To
 c0:     65 x0 + 90 x1 + 51 x2 + 78 x3 + 25 x4 + 89 x5 + s0 <= 51
 c1:     10 x0 + 40 x1 + 88 x2 + 33 x3 + 40 x4 + 51 x5 + s1 <= 365
 c2:     84 x0 + 46 x1 + 21 x2 + 4 x3 + 41 x4 + 73 x5 + s2 <= 78
 c3:     41 x0 + 97 x1 + 50 x2 + 23 x3 + 34 x4 + 77 x5 + s3 <= 284
 c4:     12 x0 + 15 x1 + 76 x2 + 72 x3 + 44 x4 + 7 x5 + s4 <= 21
 c5:     30 x0 + 52 x1 + 84 x2 + 89 x3 + 9 x4 + 70 x5 + s5 <= 548
 c6:     43 x0 + 32 x1 + 33 x2 + 6 x3 + 100 x4 + 59 x5 + s6 <= 536
 c7:     93 x0 + 74 x1 + 84 x2 + 39 x3 + 25 x4 + 55 x5 + s7 <= 464
 c8:     6 x0 + 11 x1 + 57 x2 + 29 x3 + 47 x4 + 34 x5 + s8 <= 346
 c9:     40 x0 + 35 x1 + 44 x2 + 36 x3 + 92 x4 + 72 x5 + s9 <= 106
 c10:    55 x0 + 78 x1 + 29 x2 + 47 x3 + 51 x4 + 63 x5 + s10 <= 490
 c11:    100 x0 + 72 x1 + 34 x2 + 71 x3 + 62 x4 + 62 x5 + s11 <= 599
 c12:    75 x0 + 10 x1 + 97 x2 + 41 x3 + 16 x4 + 92 x5 + s12 <= 530
 c13:    31 x0 + 67 x1 + 38 x2 + 68 x3 + 33 x4 + 65 x5 + s13 <= 208
 cut_1:  65 x0 + 90 x1 + 52 x2 + 79 x3 + 26 x4 + 89 x5 <= 51
 cut_2:  35 x0 + 48 x1 + 53 x2 + 65 x3 + 29 x4 + 45 x5 <= 32
 cut_3:  20 x0 + 27 x1 + 50 x2 + 53 x3 + 28 x4 + 23 x5 <= 21
 cut_4:  18 x0 + 24 x1 + 61 x2 + 63 x3 + 35 x4 + 19 x5 <= 22
 cut_5:  12 x0 + 15 x1 + 76 x2 + 72 x3 + 44 x4 + 8 x5 <= 21
 cut_6:  15 x0 + 21 x1 + 29 x2 + 33 x3 + 16 x4 + 19 x5 <= 15
 cut_7:  32 x0 + 44 x1 + 26 x2 + 39 x3 + 13 x4 + 44 x5 <= 25
 cut_8:  35 x0 + 47 x1 + 79 x2 + 86 x3 + 44 x4 + 41 x5 <= 36
 cut_9:  46 x0 + 63 x1 + 43 x2 + 61 x3 + 22 x4 + 62 x5 <= 37
 cut_10: 24 x0 + 33 x1 + 38 x2 + 46 x3 + 21 x4 + 31 x5 <= 22
 cut_11: 25 x0 + 35 x1 + 33 x2 + 42 x3 + 18 x4 + 33 x5 <= 22
 cut_12: 36 x0 + 48 x1 + 91 x2 + 97 x3 + 51 x4 + 41 x5 <= 39
Bounds
 0 <= x0 <= 1
 0 <= x1 <= 1
 0 <= x2 <= 1
 0 <= x3 <= 1
 0 <= x4 <= 1
 0 <= x5 <= 1
End
